NAME : VRP_MEDIUM_25
COMMENT : 25-customer CVRP instance (IIT Course Project)
TYPE : CVRP
DIMENSION : 26
CAPACITY : 120
EDGE_WEIGHT_TYPE : EUC_2D
NODE_COORD_SECTION
0  50  50
1  22  36
2  36  26
3  21  45
4  45  35
5  55  20
6  33  44
7  50  30
8  55  45
9  26  60
10 40  66
11 15  25
12 62  32
13 44  14
14 78  48
15 70  28
16 18  72
17 38  80
18 62  74
19 74  60
20 85  30
21 10  50
22 30  10
23 66  12
24 88  66
25 48  90
DEMAND_SECTION
0   0
1  18
2  26
3  11
4  30
5  21
6  19
7  15
8  28
9  12
10 23
11 20
12 25
13 17
14 30
15 22
16 14
17 18
18 27
19 20
20 25
21 16
22 23
23 19
24 28
25 15
DEPOT_SECTION
0
EOF
