NAME : VRP_LARGE_50
COMMENT : 50-customer CVRP instance (IIT Course Project)
TYPE : CVRP
DIMENSION : 51
CAPACITY : 150
EDGE_WEIGHT_TYPE : EUC_2D
NODE_COORD_SECTION
0  50  50
1  22  36
2  36  26
3  21  45
4  45  35
5  55  20
6  33  44
7  50  30
8  55  45
9  26  60
10 40  66
11 15  25
12 62  32
13 44  14
14 78  48
15 70  28
16 18  72
17 38  80
18 62  74
19 74  60
20 85  30
21 10  50
22 30  10
23 66  12
24 88  66
25 48  90
26 12  12
27 80  80
28 90  10
29 10  90
30 70  70
31 25  55
32 55  15
33 75  35
34 40  85
35 85  55
36 20  30
37 60  85
38 95  45
39 35  65
40 65  55
41 15  40
42 45  20
43 80  20
44 30  75
45 70  40
46 50  60
47 20  65
48 60  25
49 85  75
50 42  48
DEMAND_SECTION
0   0
1  18
2  26
3  11
4  30
5  21
6  19
7  15
8  28
9  12
10 23
11 20
12 25
13 17
14 30
15 22
16 14
17 18
18 27
19 20
20 25
21 16
22 23
23 19
24 28
25 15
26 12
27 29
28 24
29 18
30 22
31 16
32 28
33 20
34 15
35 25
36 19
37 22
38 30
39 17
40 23
41 14
42 26
43 21
44 18
45 27
46 20
47 15
48 24
49 28
50 16
DEPOT_SECTION
0
EOF
